p cnf 160 1065
-1 0
-81 0
21 0
-101 0
-67 0
147 0
10 0
143 -63 109 -29 0
154 74 137 57 0
-63 -143 -137 -57 0
-143 63 -137 57 0
143 -63 137 -57 0
63 143 137 57 0
-55 -135 -151 -71 0
119 -32 -39 112 0
32 112 39 119 0
-32 -112 -148 -68 0
32 -112 -148 68 0
-32 112 148 -68 0
32 112 148 68 0
-47 -127 -32 -112 0
32 -112 47 -127 0
-47 127 -32 112 0
127 32 47 112 0
-45 -125 -31 -111 0
45 -125 -111 31 0
125 -45 -31 111 0
45 125 31 111 0
-64 -144 -31 -111 0
64 -144 -111 31 0
144 -64 -31 111 0
144 64 31 111 0
-28 108 -77 157 0
28 108 77 157 0
-28 -108 -155 -75 0
28 -108 -155 75 0
-28 108 155 -75 0
28 108 155 75 0
-28 -108 -50 -130 0
-130 28 50 -108 0
-28 108 -50 130 0
28 108 50 130 0
-28 -108 -61 -141 0
-141 28 61 -108 0
-134 -110 -54 -30 0
30 -110 54 -134 0
-30 110 -54 134 0
134 110 54 30 0
-74 -154 -110 -30 0
30 -154 -110 74 0
-30 154 110 -74 0
154 74 110 30 0
-110 -30 -122 -42 0
-110 30 -122 42 0
110 -30 122 -42 0
42 110 122 30 0
-110 -30 -32 -112 0
-110 30 32 -112 0
110 -30 -32 112 0
110 30 32 112 0
33 113 158 78 0
-33 -113 -152 -72 0
33 -113 -152 72 0
-33 113 152 -72 0
33 113 152 72 0
-33 -113 -61 -141 0
-141 33 61 -113 0
141 -33 -61 113 0
-114 -34 -44 -124 0
-114 -34 -79 -159 0
-159 -114 79 34 0
159 114 -79 -34 0
114 34 79 159 0
-114 34 40 -120 0
-114 -34 -41 -121 0
-114 34 41 -121 0
114 -34 -41 121 0
114 34 41 121 0
-158 -78 -35 -115 0
78 -158 35 -115 0
-78 158 -35 115 0
158 78 35 115 0
-35 -115 -151 -71 0
-56 -136 -35 -115 0
-136 56 35 -115 0
136 -56 -35 115 0
-111 -31 -118 -38 0
110 -30 109 -29 0
118 -38 109 -29 0
-28 -108 -64 -144 0
28 -108 -144 64 0
144 -28 -64 108 0
144 64 28 108 0
-28 -108 -62 -142 0
28 -108 62 -142 0
142 -28 -62 108 0
28 108 62 142 0
33 -113 -149 69 0
-33 113 149 -69 0
33 113 149 69 0
-33 -113 -116 -36 0
33 -113 -116 36 0
-33 113 116 -36 0
33 113 116 36 0
-32 -112 -50 -130 0
-130 32 50 -112 0
130 -32 -50 112 0
32 112 50 130 0
-32 -112 -46 -126 0
-32 -112 -39 -119 0
-119 32 39 -112 0
-33 -113 -158 -78 0
-33 113 158 -78 0
104 -24 107 -27 0
-104 24 -107 27 0
-99 -19 -118 -38 0
52 99 132 19 0
-19 99 132 -52 0
19 -99 -132 52 0
-52 -19 -132 -99 0
99 19 48 128 0
128 -19 -48 99 0
-128 -99 48 19 0
-99 -19 -48 -128 0
-52 -132 -97 -17 0
-71 -97 -151 -17 0
98 18 133 53 0
98 -18 133 -53 0
-98 18 -133 53 0
-98 -18 -133 -53 0
98 18 139 59 0
104 -24 -37 117 0
-104 24 37 -117 0
-24 -104 -37 -117 0
24 104 62 142 0
104 -24 -62 142 0
-104 24 62 -142 0
159 98 -79 -18 0
-159 -98 79 18 0
-98 -18 -79 -159 0
123 -43 -25 105 0
104 -24 -61 141 0
24 -104 61 -141 0
-24 -104 -61 -141 0
72 24 152 104 0
104 -24 152 -72 0
-104 24 -152 72 0
-24 -104 -152 -72 0
24 104 63 143 0
104 -24 -63 143 0
-104 24 63 -143 0
-24 -104 -63 -143 0
24 104 37 117 0
22 -155 -102 75 0
-75 -155 -102 -22 0
24 104 102 22 0
104 -24 102 -22 0
-104 24 -102 22 0
-24 -104 -102 -22 0
102 22 137 57 0
-57 102 137 -22 0
-24 -104 -62 -142 0
80 160 24 104 0
104 -24 -80 160 0
-104 -160 24 80 0
33 -113 -158 78 0
24 104 107 27 0
-111 31 49 -129 0
-31 111 -49 129 0
129 31 49 111 0
31 -111 -146 66 0
-155 -75 -110 -30 0
30 -155 -110 75 0
-30 110 155 -75 0
75 110 155 30 0
154 74 107 27 0
-107 -27 -79 -159 0
27 -107 79 -159 0
-27 107 -79 159 0
107 27 79 159 0
-107 -27 -60 -140 0
27 -107 60 -140 0
-27 107 -60 140 0
107 27 60 140 0
27 -107 58 -138 0
-27 107 109 -29 0
141 -28 -61 108 0
28 108 61 141 0
-28 -108 -47 -127 0
28 -108 47 -127 0
-28 108 -47 127 0
28 108 47 127 0
-28 -108 -77 -157 0
28 -108 77 -157 0
134 54 99 19 0
-19 99 -54 134 0
19 -99 54 -134 0
-134 -99 -54 -19 0
99 19 118 38 0
-38 99 118 -19 0
38 -99 -118 19 0
-154 -74 -107 -27 0
-106 26 68 -148 0
-133 53 -106 26 0
149 -69 105 -25 0
-29 109 105 -25 0
-107 -27 -137 -57 0
27 -107 -137 57 0
-27 107 137 -57 0
107 27 137 57 0
-56 -136 -107 -27 0
27 56 -107 -136 0
-27 -56 107 136 0
56 136 107 27 0
-106 62 26 -142 0
-117 37 26 -106 0
36 -116 -106 26 0
38 -111 -118 31 0
-24 -104 -160 -80 0
-129 -31 -49 -111 0
43 47 -123 -127 0
144 64 80 160 0
-153 -73 -62 -142 0
-127 -47 -123 -43 0
145 65 123 43 0
-43 145 123 -65 0
-156 -124 -44 -76 0
43 -145 -123 65 0
-59 -139 -44 -124 0
-145 -65 -123 -43 0
-69 152 149 -72 0
73 62 -153 -142 0
142 153 -62 -73 0
62 142 153 73 0
-152 -72 -62 -142 0
45 125 139 59 0
-152 72 62 -142 0
142 152 -62 -72 0
125 -45 139 -59 0
152 72 62 142 0
45 -125 -139 59 0
-155 -75 -61 -141 0
-141 -155 61 75 0
141 155 -61 -75 0
51 41 -131 -121 0
-61 -141 -156 -76 0
-69 150 149 -70 0
150 70 149 69 0
-150 -70 -148 -68 0
-54 134 -41 121 0
-150 70 -148 68 0
54 -134 41 -121 0
-54 -134 -41 -121 0
42 145 122 65 0
150 -70 148 -68 0
-125 -45 -160 -80 0
150 125 45 70 0
150 -70 125 -45 0
-150 70 45 -125 0
73 -145 -153 65 0
-73 145 153 -65 0
145 65 153 73 0
-64 -144 -145 -65 0
-125 -45 -150 -70 0
64 -144 -145 65 0
152 125 45 72 0
144 -64 145 -65 0
127 47 123 43 0
144 64 145 65 0
-43 -47 123 127 0
-38 -31 118 111 0
31 111 118 38 0
64 -144 -160 80 0
144 -80 -64 160 0
-51 131 137 -57 0
150 -70 133 -53 0
80 160 60 140 0
150 70 133 53 0
55 63 135 143 0
51 -131 -137 57 0
-131 -51 -137 -57 0
-80 160 -60 140 0
-52 -158 -132 -78 0
78 -158 -132 52 0
-55 -63 -135 -143 0
-41 -121 -131 -51 0
-141 58 61 -138 0
78 -158 58 -138 0
41 121 139 59 0
-134 -54 -60 -140 0
-140 54 60 -134 0
-54 134 -60 140 0
134 54 60 140 0
-160 -80 -60 -140 0
132 52 158 78 0
-134 -54 -151 -71 0
-78 132 158 -52 0
-160 80 60 -140 0
-143 63 -135 55 0
79 -159 58 -138 0
-141 61 -156 76 0
141 -61 156 -76 0
61 141 156 76 0
-141 61 66 -146 0
-125 -45 -139 -59 0
-155 -75 -145 -65 0
-155 75 -145 65 0
155 -75 145 -65 0
80 125 45 160 0
155 75 145 65 0
-80 160 125 -45 0
-160 80 45 -125 0
-145 -65 -153 -73 0
143 -63 135 -55 0
-51 132 131 -52 0
51 -132 -131 52 0
-132 -52 -131 -51 0
-74 -154 -137 -57 0
-154 74 -137 57 0
-57 154 137 -74 0
154 74 131 51 0
-51 154 131 -74 0
-150 -70 -133 -53 0
-150 70 -133 53 0
-160 -80 -64 -144 0
-154 -74 -131 -51 0
131 51 137 57 0
-117 63 37 -143 0
117 -37 -63 143 0
63 143 37 117 0
27 -154 -107 74 0
-27 154 107 -74 0
33 113 61 141 0
-33 -113 -132 -52 0
33 -113 -132 52 0
-33 113 132 -52 0
119 123 -39 -43 0
123 43 39 119 0
-61 -141 -39 -119 0
-141 61 39 -119 0
141 -61 -39 119 0
61 141 39 119 0
-119 39 40 -120 0
-56 -136 -118 -38 0
38 56 -118 -136 0
-38 -56 118 136 0
56 136 118 38 0
-47 -127 -118 -38 0
38 47 -118 -127 0
-38 -47 118 127 0
47 127 118 38 0
121 131 41 51 0
51 -131 40 -120 0
41 -121 40 -120 0
56 136 35 115 0
114 -34 135 -55 0
55 114 135 34 0
-55 -114 -135 -34 0
-114 34 -135 55 0
33 113 132 52 0
-33 -113 -149 -69 0
-116 -36 -123 -43 0
43 -116 -123 36 0
-43 116 123 -36 0
116 36 123 43 0
-160 -80 -116 -36 0
-160 80 -116 36 0
-80 160 116 -36 0
160 80 116 36 0
-116 -36 -46 -126 0
66 35 -115 -146 0
38 58 -138 -118 0
-64 -144 -37 -117 0
64 -144 37 -117 0
144 -64 -37 117 0
144 64 37 117 0
-37 -117 -62 -142 0
51 -154 -131 74 0
142 -37 -62 117 0
37 117 62 142 0
-37 -117 -63 -143 0
-73 158 153 -78 0
158 78 153 73 0
-152 -72 -156 -76 0
-77 -157 -44 -124 0
-152 72 -156 76 0
152 -72 156 -76 0
152 72 156 76 0
-152 -72 -149 -69 0
69 -152 -149 72 0
-41 121 139 -59 0
41 -121 -139 59 0
-140 -133 53 60 0
-59 -41 -139 -121 0
60 53 133 140 0
-133 -53 -151 -71 0
154 74 41 121 0
154 -74 -41 121 0
-154 74 41 -121 0
152 72 149 69 0
-154 -74 -41 -121 0
-149 -69 -77 -157 0
69 -149 77 -157 0
-69 149 -77 157 0
155 75 61 141 0
149 69 77 157 0
-150 -70 -149 -69 0
134 54 41 121 0
69 -150 -149 70 0
77 -157 40 -120 0
-156 76 40 -120 0
-123 -43 -39 -119 0
43 -123 39 -119 0
-37 -117 -79 -159 0
-159 37 79 -117 0
159 -37 -79 117 0
37 117 79 159 0
145 -65 122 -42 0
150 70 148 68 0
42 -145 -122 65 0
-149 -69 -148 -68 0
-149 69 -148 68 0
149 -69 148 -68 0
149 69 148 68 0
-146 66 68 -148 0
-158 -78 -156 -76 0
-145 -65 -122 -42 0
78 -158 -156 76 0
-78 158 156 -76 0
158 78 156 76 0
-155 -75 -153 -73 0
-117 37 62 -142 0
-73 155 153 -75 0
155 75 153 73 0
-158 -78 -153 -73 0
78 -158 -153 73 0
45 -125 -148 68 0
-45 -125 -148 -68 0
-157 -77 -46 -126 0
-68 -148 -46 -126 0
-130 -132 50 52 0
-132 -52 -50 -130 0
54 134 50 130 0
130 -54 -50 134 0
-130 54 50 -134 0
130 132 -50 -52 0
42 122 77 157 0
122 -42 -77 157 0
42 -122 77 -157 0
-122 -42 -77 -157 0
-122 -124 -44 -42 0
42 48 122 128 0
128 122 -48 -42 0
-128 48 -122 42 0
-122 -42 -48 -128 0
42 122 148 68 0
122 -42 148 -68 0
-122 42 -148 68 0
-68 -122 -148 -42 0
43 -138 -123 58 0
-51 -41 131 121 0
159 -79 -49 129 0
86 6 2 82 0
86 -6 -2 82 0
-86 6 2 -82 0
-86 -6 -2 -82 0
2 82 153 73 0
-73 -2 153 82 0
73 2 -153 -82 0
-54 -134 -50 -130 0
150 70 50 130 0
130 150 -50 -70 0
-130 -150 50 70 0
-150 -70 -50 -130 0
76 131 156 51 0
-51 131 156 -76 0
51 -131 -156 76 0
-76 -131 -156 -51 0
132 52 131 51 0
-74 -154 -49 -129 0
49 129 79 159 0
-125 -45 -152 -72 0
64 144 45 125 0
144 125 -64 -45 0
73 -155 -153 75 0
-45 -125 -64 -144 0
45 125 148 68 0
125 -45 148 -68 0
-51 88 131 -8 0
51 -88 -131 8 0
-88 -8 -131 -51 0
64 144 88 8 0
144 -64 88 -8 0
64 -144 -88 8 0
37 -117 7 -87 0
-87 -37 -7 -117 0
87 7 39 119 0
119 -7 -39 87 0
-119 7 39 -87 0
-87 -7 -39 -119 0
87 7 23 103 0
-7 87 -23 103 0
7 -87 23 -103 0
-87 -7 -23 -103 0
128 -48 135 -55 0
-128 48 -135 55 0
-55 -48 -135 -128 0
152 72 48 128 0
128 152 -48 -72 0
-128 -152 48 72 0
-72 -152 -48 -128 0
150 70 48 128 0
128 150 -48 -70 0
-128 -150 48 70 0
-159 49 79 -129 0
-129 -79 -49 -159 0
129 49 77 157 0
-49 129 -77 157 0
49 -129 77 -157 0
-49 -129 -77 -157 0
60 140 50 130 0
130 -50 -60 140 0
-130 60 50 -140 0
-140 -50 -60 -130 0
139 59 50 130 0
130 139 -50 -59 0
-130 50 -139 59 0
-59 -50 -139 -130 0
132 52 50 130 0
-87 -7 -151 -71 0
108 28 87 7 0
108 -28 87 -7 0
28 -108 7 -87 0
-28 -108 -7 -87 0
88 -8 -41 121 0
-88 8 41 -121 0
-88 -8 -41 -121 0
-144 64 45 -125 0
-56 136 -9 89 0
109 -29 89 -9 0
145 -65 89 -9 0
-91 11 49 -129 0
-11 -91 -49 -129 0
87 54 7 134 0
-54 134 -7 87 0
54 -134 7 -87 0
-87 -54 -7 -134 0
88 8 153 73 0
-73 88 153 -8 0
73 -88 -153 8 0
-88 -8 -153 -73 0
88 8 131 51 0
-33 -113 -92 -12 0
92 12 49 129 0
92 -12 -49 129 0
-92 12 49 -129 0
-149 69 -91 11 0
-11 -149 -91 -69 0
11 91 135 55 0
91 -11 135 -55 0
-91 11 -135 55 0
-11 -91 -135 -55 0
-91 -11 -46 -126 0
11 91 158 78 0
-78 91 158 -11 0
-158 78 -91 11 0
-11 -158 -91 -78 0
33 -113 -92 12 0
-33 113 92 -12 0
33 113 92 12 0
-92 -12 -133 -53 0
-92 12 -133 53 0
92 -12 133 -53 0
92 12 133 53 0
-92 -12 -48 -128 0
-128 -92 48 12 0
128 92 -48 -12 0
92 12 48 128 0
-11 -91 -153 -73 0
73 -91 -153 11 0
-73 91 153 -11 0
91 11 153 73 0
113 -33 91 -11 0
-113 33 -91 11 0
-33 -113 -91 -11 0
11 98 91 18 0
98 -18 91 -11 0
-98 18 -91 11 0
-11 -98 -91 -18 0
11 149 91 69 0
128 -48 89 -9 0
116 -36 89 -9 0
159 -79 89 -9 0
91 -11 -49 129 0
-6 -86 -114 -34 0
6 86 16 96 0
96 86 -16 -6 0
-96 -86 16 6 0
-6 -86 -16 -96 0
86 6 145 65 0
-2 -82 -153 -73 0
82 -2 105 -25 0
-126 -46 -4 -84 0
-129 -49 -4 -84 0
-15 -95 -4 -84 0
-41 -121 -4 -84 0
-15 83 -3 95 0
-3 83 137 -57 0
-3 115 -35 83 0
130 83 -50 -3 0
33 113 91 11 0
123 -43 83 -3 0
150 70 2 82 0
150 -70 -2 82 0
-150 70 2 -82 0
-150 -70 -2 -82 0
63 143 2 82 0
143 -2 -63 82 0
63 -143 2 -82 0
-2 -82 -63 -143 0
11 91 49 129 0
86 -6 145 -65 0
-86 6 -145 65 0
-86 -6 -145 -65 0
6 86 102 22 0
-22 86 102 -6 0
-86 -102 22 6 0
103 2 23 82 0
-2 82 -23 103 0
2 -82 23 -103 0
-103 -2 -23 -82 0
56 136 2 82 0
-56 136 -2 82 0
-136 56 2 -82 0
-56 -136 -2 -82 0
-2 -82 -97 -17 0
128 83 -3 -48 0
-110 30 7 -87 0
-87 -110 -7 -30 0
87 37 7 117 0
-37 117 -7 87 0
125 -45 -5 85 0
5 -85 45 -125 0
149 -69 91 -11 0
86 -6 114 -34 0
-86 6 -114 34 0
149 69 16 96 0
-69 149 -16 96 0
69 -149 16 -96 0
-149 -69 -16 -96 0
79 159 16 96 0
159 -79 -16 96 0
-159 79 16 -96 0
-79 -159 -16 -96 0
-96 16 66 -146 0
129 49 16 96 0
-16 96 -49 129 0
-96 49 16 -129 0
-129 -16 -49 -96 0
118 38 16 96 0
32 112 99 19 0
-32 -19 99 112 0
19 -99 32 -112 0
-32 -112 -19 -99 0
32 -112 -100 20 0
-156 76 -100 20 0
5 -85 39 -119 0
-5 -85 -39 -119 0
5 85 99 19 0
-24 -104 -107 -27 0
5 -85 -99 19 0
-99 -19 -5 -85 0
-16 96 -77 157 0
-96 16 77 -157 0
-16 -96 -77 -157 0
-139 59 14 -94 0
111 31 15 95 0
111 -31 -15 95 0
31 -111 15 -95 0
-111 -31 -15 -95 0
-38 118 -16 96 0
38 16 -118 -96 0
-154 74 13 -93 0
-74 -154 -13 -93 0
56 136 93 13 0
136 -56 -13 93 0
-136 56 13 -93 0
-56 -136 -13 -93 0
98 18 93 13 0
98 -18 -13 93 0
-98 18 13 -93 0
-98 -18 -13 -93 0
80 160 13 93 0
-80 160 -13 93 0
80 -160 13 -93 0
-125 -45 -5 -85 0
86 6 114 34 0
-115 -35 -97 -17 0
-145 -65 -97 -17 0
-78 86 158 -6 0
78 -86 -158 6 0
-86 -6 -158 -78 0
-6 -86 -97 -17 0
86 6 56 136 0
136 86 -56 -6 0
-136 -86 56 6 0
-86 -6 -56 -136 0
87 110 7 30 0
110 -30 -7 87 0
5 85 37 117 0
117 -37 -5 85 0
-117 5 37 -85 0
-37 -117 -5 -85 0
5 125 45 85 0
-103 -23 -4 -84 0
-116 -36 -4 -84 0
-155 -75 -4 -84 0
5 85 47 127 0
-47 127 -5 85 0
5 -85 47 -127 0
-47 -127 -5 -85 0
5 85 63 143 0
143 -63 -5 85 0
119 -39 105 -25 0
5 85 137 57 0
-57 -5 137 85 0
5 -85 -137 57 0
-5 -85 -137 -57 0
98 -18 139 -59 0
-98 18 -139 59 0
-98 -18 -139 -59 0
70 150 98 18 0
150 -70 98 -18 0
70 -150 -98 18 0
-150 -70 -98 -18 0
98 18 79 159 0
-115 35 -100 20 0
40 -120 -100 20 0
-142 62 20 -100 0
52 132 102 22 0
-22 132 102 -52 0
22 -132 -102 52 0
-52 -132 -102 -22 0
-99 -146 66 19 0
-85 5 63 -143 0
-63 -143 -5 -85 0
5 85 39 119 0
119 -5 -39 85 0
-6 -86 -102 -22 0
-160 -80 -13 -93 0
73 -153 -94 14 0
154 -74 -13 93 0
154 74 13 93 0
-92 -12 -110 -30 0
30 -92 -110 12 0
155 75 93 13 0
155 -13 93 -75 0
-93 13 -155 75 0
-75 -155 -13 -93 0
134 54 13 93 0
-129 -92 -49 -12 0
80 160 92 12 0
-80 160 92 -12 0
80 -160 -92 12 0
-160 -80 -92 -12 0
92 12 98 18 0
92 -12 98 -18 0
12 -92 -98 18 0
-92 -12 -98 -18 0
92 12 110 30 0
-30 92 110 -12 0
-103 -23 -139 -59 0
152 72 23 103 0
152 -72 -23 103 0
-152 72 23 -103 0
-152 -72 -23 -103 0
24 104 61 141 0
-150 -70 -48 -128 0
154 74 49 129 0
154 -74 -49 129 0
-154 74 49 -129 0
125 -45 152 -72 0
45 -125 -152 72 0
-64 -144 -88 -8 0
88 8 35 115 0
-8 88 -35 115 0
8 -88 35 -115 0
-88 -8 -35 -115 0
-8 88 89 -9 0
111 31 88 8 0
-31 111 88 -8 0
31 -111 -88 8 0
-111 -31 -88 -8 0
88 8 41 121 0
47 127 60 140 0
-47 127 -60 140 0
-140 47 60 -127 0
-47 -127 -60 -140 0
55 48 135 128 0
99 19 93 13 0
-134 -54 -13 -93 0
-93 13 54 -134 0
6 86 158 78 0
-140 60 -94 14 0
-94 20 -100 14 0
23 -103 -139 59 0
15 95 139 59 0
-15 95 139 -59 0
15 -95 -139 59 0
-59 -15 -139 -95 0
98 18 15 95 0
98 -18 -15 95 0
-98 18 15 -95 0
-98 -18 -15 -95 0
127 47 15 95 0
-47 127 -15 95 0
-16 -96 -118 -38 0
16 96 156 76 0
-16 96 156 -76 0
16 -96 -156 76 0
-16 -96 -156 -76 0
-47 -127 -97 -17 0
47 -127 15 -95 0
-127 -47 -15 -95 0
103 15 23 95 0
95 -23 -15 103 0
15 -95 23 -103 0
-103 -23 -15 -95 0
-106 15 -95 26 0
99 -19 -5 85 0
16 96 77 157 0
-22 155 102 -75 0
-19 99 -13 93 0
75 155 102 22 0
-55 -102 -135 -22 0
-102 22 -135 55 0
102 -22 135 -55 0
55 102 135 22 0
-102 -22 -123 -43 0
43 -102 -123 22 0
13 -93 -99 19 0
-99 -19 -13 -93 0
-13 93 105 -25 0
-54 -13 93 134 0
-23 103 139 -59 0
23 103 139 59 0
-103 -132 -23 -52 0
-132 52 23 -103 0
132 -52 -23 103 0
103 132 23 52 0
123 43 102 22 0
-43 123 102 -22 0
-102 -106 26 22 0
-102 -22 -137 -57 0
22 -102 -137 57 0
-142 62 14 -94 0
-119 39 -94 14 0
-155 75 4 0
-44 -124 -20 0
20 -100 44 0
63 143 29 0
-110 -30 -109 0
110 30 29 0
-115 -35 -20 0
-47 127 97 0
-149 -69 -105 0
-34 -114 -40 0
111 31 146 0
155 -75 84 0
86 -6 97 0
36 -116 4 0
116 -36 84 0
34 114 120 0
-111 -31 -66 0
-86 6 17 0
-133 53 71 0
133 151 -53 0
-95 -15 -26 0
-94 46 14 0
-112 32 46 0
112 -32 126 0
-140 -60 -14 0
-43 -123 -83 0
54 -134 71 0
-142 -62 -26 0
115 35 146 0
115 35 100 0
-156 -76 -20 0
76 156 100 0
-32 -112 -20 0
42 -122 44 0
32 112 100 0
-42 122 124 0
-19 -99 -66 0
-43 -123 -105 0
99 19 146 0
-115 35 71 0
115 -35 151 0
-62 -142 -20 0
149 69 25 0
142 62 100 0
-59 -139 -14 0
-128 -48 -89 0
-65 145 97 0
-27 -107 -109 0
27 107 138 0
65 -145 17 0
95 15 106 0
-68 -148 -26 0
128 48 3 0
148 68 106 0
-158 -78 -58 0
-54 134 151 0
-38 -118 -109 0
-68 -148 -66 0
-145 -65 -89 0
145 65 9 0
-132 52 17 0
-114 34 44 0
47 -127 17 0
38 118 29 0
-133 -26 -53 0
133 53 106 0
36 116 106 0
-36 -116 -26 0
37 117 106 0
-91 11 46 0
91 -11 126 0
-37 -117 -26 0
142 62 106 0
43 123 138 0
132 -52 97 0
-56 -136 -89 0
115 -35 97 0
-115 35 17 0
-82 -2 -105 0
-7 87 151 0
-157 77 44 0
7 -87 71 0
158 78 138 0
-82 2 17 0
114 -34 124 0
48 128 9 0
-2 82 97 0
56 136 9 0
-107 -27 -58 0
107 27 29 0
49 -129 4 0
-63 -143 -109 0
-88 -8 -89 0
-36 -116 -89 0
159 79 9 0
88 8 9 0
-141 -61 -58 0
36 -116 46 0
-159 -79 -58 0
79 159 138 0
-79 -159 -89 0
119 39 25 0
118 38 138 0
36 116 9 0
-124 -58 -44 0
2 82 25 0
-119 -39 -105 0
116 -36 126 0
16 96 146 0
140 60 94 0
95 15 3 0
-122 -42 -90 0
141 61 146 0
58 -138 44 0
-85 -5 -90 0
-5 85 90 0
133 90 -53 0
-133 -90 -53 0
140 90 -60 0
-140 -90 -60 0
116 -36 90 0
-116 -36 -90 0
122 -42 90 0
-61 -141 -66 0
43 123 25 0
68 148 146 0
61 141 138 0
76 156 120 0
-115 -35 -66 0
123 43 3 0
-16 -96 -66 0
-48 -128 -83 0
-49 129 84 0
-76 -156 -40 0
157 77 120 0
-102 -22 -26 0
-157 -77 -40 0
102 22 106 0
121 41 120 0
95 -15 84 0
15 -95 4 0
62 142 94 0
-119 -39 -14 0
-41 -121 -40 0
119 39 94 0
-13 -93 -105 0
-41 121 84 0
131 51 120 0
93 13 25 0
41 -121 4 0
-131 -51 -40 0
-118 -38 -58 0
-23 103 84 0
23 -103 4 0
59 139 94 0
-126 -46 -14 0
-123 -43 -58 0
-153 -73 -14 0
-15 -95 -83 0
137 57 3 0
153 73 94 0
-62 -142 -14 0
-137 -57 -83 0
39 119 120 0
35 115 3 0
-39 -119 -40 0
157 -77 124 0
139 -59 124 0
135 -55 151 0
-35 -115 -83 0
-77 157 126 0
77 -157 46 0
50 130 3 0
148 -68 126 0
-148 68 46 0
-156 76 44 0
156 -76 124 0
-50 -130 -83 0
-135 55 71 0
-139 59 44 0
-66 146 0
-58 138 0
-89 9 0
25 -105 0
25 29 0
-105 -109 0
-89 -109 0
9 29 0
-109 29 0
151 71 0
151 97 0
71 17 0
-26 106 0
100 120 0
-60 -53 0
100 -20 0
4 84 0
4 46 0
84 126 0
-83 3 0
97 17 0
-14 -20 0
100 94 0
94 -14 0
120 -40 0
46 126 0
44 124 0
-20 -40 0
